
--- Job modelo sin tiempo problema de reconstruccion + transbordo.gms Start 11/26/22 12:15:10 41.2.0 5110e5ff WEX-WEI x86 64bit/MS Windows
--- Applying:
    C:\GAMS\41\gmsprmNT.txt
--- GAMS Parameters defined
    Input "G:\Mi unidad\TFG\src\modelo sin tiempo problema de reconstruccion + transbordo.gms"
    PageSize 0
    ScrDir "G:\Mi unidad\TFG\src\225a\"
    SysDir C:\GAMS\41\
    LogOption 3
    ErrMsg 1
    ErrorLog 99
    IDE 1
    LstTitleLeftAligned 1
Licensee: GAMS Demo license for Antonio Sevilla Sastre   G221121|0002CO-GEN
          UCM, Spain                                               DL079880
          C:\Users\Antonio\Documents\GAMS\gamslice.txt
          antsev01@ucm.es, Antonio Sevilla Sastre                          
          Demo license for demonstration and instructional purposes only
Processor information: 1 socket(s), 14 core(s), and 20 thread(s) available
GAMS 41.2.0   Copyright (C) 1987-2022 GAMS Development. All rights reserved
--- Starting compilation
--- modelo sin tiempo problema de reconstruccion + transbordo.gms(111) 3 Mb
--- Starting execution: elapsed 0:00:00.024
--- Generating MIP model modelo1
--- modelo sin tiempo problema de reconstruccion + transbordo.gms(110) 4 Mb
---   248 rows  115 columns  492 non-zeroes
---   56 discrete-columns
--- Range statistics (absolute non-zero finite values)
--- RHS       [min, max] : [ 1.000E+00, 9.900E+01] - Zero values observed as well
--- Bound     [min, max] : [ 1.000E+00, 1.000E+00] - Zero values observed as well
--- Matrix    [min, max] : [ 1.000E+00, 9.900E+01]
--- Executing CPLEX (Solvelink=2): elapsed 0:00:00.116

IBM ILOG CPLEX   41.2.0 5110e5ff Nov 14, 2022          WEI x86 64bit/MS Window

--- *** This solver runs with a demo license. No commercial use.
--- GMO setup time: 0.00s
--- GMO memory 0.54 Mb (peak 0.54 Mb)
--- Dictionary memory 0.00 Mb
--- Cplex 22.1.0.0 link memory 0.01 Mb (peak 0.02 Mb)
--- Starting Cplex

Version identifier: 22.1.0.0 | 2022-03-09 | 1a383f8ce
CPXPARAM_Advance                                 0
CPXPARAM_Threads                                 1
CPXPARAM_MIP_Display                             4
CPXPARAM_MIP_Pool_Capacity                       0
CPXPARAM_MIP_Tolerances_AbsMIPGap                0
Generic callback                                 0x50
Found incumbent of value 21.000000 after 0.00 sec. (0.01 ticks)
Tried aggregator 2 times.
MIP Presolve eliminated 236 rows and 105 columns.
MIP Presolve modified 2 coefficients.
Aggregator did 5 substitutions.
Reduced MIP has 6 rows, 5 columns, and 14 nonzeros.
Reduced MIP has 1 binaries, 0 generals, 0 SOSs, and 0 indicators.
Presolve time = 0.00 sec. (0.18 ticks)
Probing fixed 0 vars, tightened 1 bounds.
Probing time = 0.00 sec. (0.00 ticks)
Tried aggregator 1 time.
MIP Presolve eliminated 6 rows and 5 columns.
MIP Presolve modified 3 coefficients.
All rows and columns eliminated.
Presolve time = 0.00 sec. (0.00 ticks)

Root node processing (before b&c):
  Real time             =    0.00 sec. (0.20 ticks)
Sequential b&c:
  Real time             =    0.00 sec. (0.00 ticks)
                          ------------
Total (root+branch&cut) =    0.00 sec. (0.20 ticks)

--- MIP status (101): integer optimal solution.
--- Cplex Time: 0.00sec (det. 0.20 ticks)

--- Fixing integer variables and solving final LP...

Version identifier: 22.1.0.0 | 2022-03-09 | 1a383f8ce
CPXPARAM_Advance                                 2
CPXPARAM_Threads                                 1
CPXPARAM_MIP_Display                             4
CPXPARAM_MIP_Pool_Capacity                       0
CPXPARAM_MIP_Tolerances_AbsMIPGap                0
Tried aggregator 1 time.
LP Presolve eliminated 246 rows and 114 columns.
Aggregator did 1 substitutions.
All rows and columns eliminated.
Presolve time = 0.00 sec. (0.09 ticks)

--- Fixed MIP status (1): optimal.
--- Cplex Time: 0.00sec (det. 0.17 ticks)


Proven optimal solution
MIP Solution:            7.000000    (0 iterations, 0 nodes)
Final Solve:             7.000000    (0 iterations)

Best possible:           7.000000
Absolute gap:            0.000000
Relative gap:            0.000000

--- Reading solution for model modelo1
--- Executing after solve: elapsed 0:00:00.193
--- Generating MIP model modelo1
--- modelo sin tiempo problema de reconstruccion + transbordo.gms(111) 4 Mb
---   248 rows  115 columns  492 non-zeroes
---   56 discrete-columns
--- Range statistics (absolute non-zero finite values)
--- RHS       [min, max] : [ 1.000E+00, 9.900E+01] - Zero values observed as well
--- Bound     [min, max] : [ 1.000E+00, 1.000E+00] - Zero values observed as well
--- Matrix    [min, max] : [ 1.000E+00, 9.900E+01]
--- Executing CPLEX (Solvelink=2): elapsed 0:00:00.252

IBM ILOG CPLEX   41.2.0 5110e5ff Nov 14, 2022          WEI x86 64bit/MS Window

--- *** This solver runs with a demo license. No commercial use.
--- GMO setup time: 0.00s
--- GMO memory 0.54 Mb (peak 0.54 Mb)
--- Dictionary memory 0.00 Mb
--- Cplex 22.1.0.0 link memory 0.01 Mb (peak 0.02 Mb)
--- Starting Cplex

Version identifier: 22.1.0.0 | 2022-03-09 | 1a383f8ce
CPXPARAM_Advance                                 0
CPXPARAM_Threads                                 1
CPXPARAM_MIP_Display                             4
CPXPARAM_MIP_Pool_Capacity                       0
CPXPARAM_MIP_Tolerances_AbsMIPGap                0
Generic callback                                 0x50
Found incumbent of value 0.000000 after 0.00 sec. (0.01 ticks)
Tried aggregator 4 times.
MIP Presolve eliminated 237 rows and 105 columns.
MIP Presolve modified 7 coefficients.
Aggregator did 10 substitutions.
All rows and columns eliminated.
Presolve time = 0.00 sec. (0.24 ticks)

Root node processing (before b&c):
  Real time             =    0.00 sec. (0.26 ticks)
Sequential b&c:
  Real time             =    0.00 sec. (0.00 ticks)
                          ------------
Total (root+branch&cut) =    0.00 sec. (0.26 ticks)

--- MIP status (101): integer optimal solution.
--- Cplex Time: 0.00sec (det. 0.26 ticks)

--- Fixing integer variables and solving final LP...

Version identifier: 22.1.0.0 | 2022-03-09 | 1a383f8ce
CPXPARAM_Advance                                 2
CPXPARAM_Threads                                 1
CPXPARAM_MIP_Display                             4
CPXPARAM_MIP_Pool_Capacity                       0
CPXPARAM_MIP_Tolerances_AbsMIPGap                0
Tried aggregator 1 time.
LP Presolve eliminated 247 rows and 115 columns.
All rows and columns eliminated.
Presolve time = 0.00 sec. (0.09 ticks)

--- Fixed MIP status (1): optimal.
--- Cplex Time: 0.00sec (det. 0.17 ticks)


Proven optimal solution
MIP Solution:            2.000000    (0 iterations, 0 nodes)
Final Solve:             2.000000    (0 iterations)

Best possible:           2.000000
Absolute gap:            0.000000
Relative gap:            0.000000

--- Reading solution for model modelo1
*** Status: Normal completion
--- Job modelo sin tiempo problema de reconstruccion + transbordo.gms Stop 11/26/22 12:15:10 elapsed 0:00:00.328
